\ SCIP STATISTICS
\   Problem name     : SetCover-100-100
\   Variables        : 100 (100 binary, 0 integer, 0 implicit integer, 0 continuous)
\   Constraints      : 100
Minimize
 Obj: +32 x0 +88 x1 +52 x2 +54 x3 +69 x4 +93 x5 +38 x6 +24 x7 +4 x8 +70 x9 +67 x10 +11 x11 +32 x12 +73 x13
      +13 x14 +15 x15 +100 x16 +71 x17 +33 x18 +22 x19 +83 x20 +34 x21 +67 x22 +42 x23 +59 x24 +34 x25
      +17 x26 +24 x27 +26 x28 +87 x29 +55 x30 +77 x31 +52 x32 +42 x33 +43 x34 +98 x35 +25 x36 +74 x37
      +93 x38 +84 x39 +82 x40 +31 x41 +16 x42 +85 x43 +94 x44 +43 x45 +64 x46 +48 x47 +73 x48 +72 x49
      +41 x50 +70 x51 +65 x52 +69 x53 +70 x54 +8 x55 +29 x56 +88 x57 +80 x58 +35 x59 +97 x60 +77 x61 +91 x62
      +48 x63 +26 x64 +9 x65 +84 x66 +75 x67 +54 x68 +20 x69 +97 x70 +84 x71 +82 x72 +18 x73 +70 x74 +5 x75
      +52 x76 +23 x77 +76 x78 +11 x79 +46 x80 +11 x81 +42 x82 +27 x83 +19 x84 +42 x85 +86 x86 +97 x87
      +38 x88 +29 x89 +22 x90 +98 x91 +10 x92 +36 x93 +25 x94 +53 x95 +52 x96 +79 x97 +97 x98 +59 x99
Subject to
 c0: +1 x1 +1 x5 +1 x19 +1 x21 +1 x23 +1 x29 +1 x31 +1 x34 +1 x42 +1 x44 +1 x46 +1 x49 +1 x50 +1 x53 +1 x60
  +1 x62 +1 x64 +1 x74 +1 x78 +1 x88 +1 x91 +1 x92 +1 x94 >= +1
 c1: +1 x3 +1 x6 +1 x13 +1 x24 +1 x25 +1 x35 +1 x44 +1 x45 +1 x55 +1 x59 +1 x62 +1 x64 +1 x79 +1 x80 +1 x81
  +1 x83 +1 x88 +1 x89 +1 x98 >= +1
 c2: +1 x0 +1 x12 +1 x13 +1 x30 +1 x36 +1 x37 +1 x42 +1 x44 +1 x48 +1 x51 +1 x52 +1 x57 +1 x62 +1 x67
  +1 x75 +1 x78 +1 x88 +1 x90 >= +1
 c3: +1 x1 +1 x5 +1 x6 +1 x17 +1 x24 +1 x30 +1 x31 +1 x32 +1 x34 +1 x35 +1 x46 +1 x50 +1 x52 +1 x53 +1 x61
  +1 x67 +1 x71 +1 x80 +1 x87 +1 x96 +1 x98 >= +1
 c4: +1 x2 +1 x10 +1 x11 +1 x19 +1 x20 +1 x27 +1 x28 +1 x29 +1 x31 +1 x33 +1 x47 +1 x66 +1 x75 +1 x80
  +1 x85 +1 x86 +1 x88 +1 x91 +1 x95 +1 x98 >= +1
 c5: +1 x0 +1 x6 +1 x8 +1 x9 +1 x12 +1 x14 +1 x17 +1 x22 +1 x27 +1 x33 +1 x37 +1 x43 +1 x45 +1 x49 +1 x54
  +1 x59 +1 x64 +1 x68 +1 x87 +1 x90 >= +1
 c6: +1 x3 +1 x8 +1 x10 +1 x12 +1 x27 +1 x30 +1 x32 +1 x36 +1 x44 +1 x48 +1 x56 +1 x59 +1 x61 +1 x75 +1 x77
  +1 x81 +1 x90 >= +1
 c7: +1 x2 +1 x14 +1 x19 +1 x25 +1 x29 +1 x33 +1 x36 +1 x38 +1 x47 +1 x49 +1 x53 +1 x56 +1 x58 +1 x59
  +1 x62 +1 x78 +1 x84 +1 x94 +1 x95 +1 x97 >= +1
 c8: +1 x3 +1 x9 +1 x11 +1 x17 +1 x25 +1 x26 +1 x27 +1 x29 +1 x33 +1 x42 +1 x48 +1 x49 +1 x50 +1 x53 +1 x59
  +1 x68 +1 x75 +1 x83 +1 x91 +1 x97 >= +1
 c9: +1 x2 +1 x12 +1 x13 +1 x19 +1 x38 +1 x40 +1 x42 +1 x45 +1 x49 +1 x54 +1 x57 +1 x63 +1 x74 +1 x84
  +1 x87 +1 x94 +1 x95 >= +1
 c10: +1 x1 +1 x4 +1 x5 +1 x23 +1 x26 +1 x42 +1 x52 +1 x56 +1 x72 +1 x79 +1 x87 +1 x89 +1 x93 +1 x96 >= +1
 c11: +1 x1 +1 x7 +1 x14 +1 x21 +1 x30 +1 x35 +1 x36 +1 x37 +1 x46 +1 x50 +1 x54 +1 x57 +1 x66 +1 x85
  +1 x91 +1 x94 +1 x97 +1 x98 >= +1
 c12: +1 x2 +1 x4 +1 x8 +1 x13 +1 x15 +1 x17 +1 x21 +1 x23 +1 x26 +1 x28 +1 x30 +1 x32 +1 x33 +1 x46 +1 x51
  +1 x54 +1 x59 +1 x62 +1 x66 +1 x67 +1 x69 +1 x76 +1 x79 +1 x81 +1 x82 +1 x88 +1 x94 +1 x95 >= +1
 c13: +1 x3 +1 x7 +1 x8 +1 x10 +1 x11 +1 x15 +1 x24 +1 x29 +1 x33 +1 x36 +1 x47 +1 x48 +1 x53 +1 x57 +1 x62
  +1 x74 >= +1
 c14: +1 x2 +1 x9 +1 x12 +1 x20 +1 x23 +1 x34 +1 x45 +1 x52 +1 x54 +1 x57 +1 x58 +1 x61 +1 x64 +1 x71
  +1 x72 +1 x73 +1 x75 +1 x79 +1 x80 +1 x82 +1 x90 +1 x91 >= +1
 c15: +1 x2 +1 x9 +1 x17 +1 x18 +1 x19 +1 x22 +1 x23 +1 x24 +1 x25 +1 x26 +1 x45 +1 x51 +1 x70 +1 x71
  +1 x72 +1 x76 +1 x81 +1 x98 +1 x99 >= +1
 c16: +1 x2 +1 x13 +1 x14 +1 x22 +1 x29 +1 x32 +1 x33 +1 x37 +1 x43 +1 x44 +1 x50 +1 x52 +1 x55 +1 x59
  +1 x63 +1 x69 +1 x77 +1 x83 +1 x93 +1 x97 >= +1
 c17: +1 x1 +1 x4 +1 x6 +1 x8 +1 x12 +1 x16 +1 x22 +1 x28 +1 x33 +1 x34 +1 x37 +1 x42 +1 x44 +1 x46 +1 x49
  +1 x53 +1 x59 +1 x61 +1 x62 +1 x67 +1 x78 +1 x84 +1 x85 +1 x96 >= +1
 c18: +1 x4 +1 x7 +1 x8 +1 x19 +1 x21 +1 x23 +1 x25 +1 x27 +1 x28 +1 x34 +1 x35 +1 x38 +1 x42 +1 x44 +1 x48
  +1 x51 +1 x55 +1 x62 +1 x63 +1 x68 +1 x77 +1 x79 +1 x87 +1 x96 +1 x97 >= +1
 c19: +1 x4 +1 x9 +1 x11 +1 x18 +1 x22 +1 x28 +1 x38 +1 x44 +1 x51 +1 x53 +1 x60 +1 x61 +1 x63 +1 x70
  +1 x71 +1 x74 +1 x84 +1 x90 +1 x95 +1 x98 >= +1
 c20: +1 x0 +1 x8 +1 x10 +1 x26 +1 x29 +1 x36 +1 x40 +1 x41 +1 x44 +1 x46 +1 x48 +1 x49 +1 x50 +1 x57
  +1 x61 +1 x64 +1 x65 +1 x66 +1 x71 +1 x73 +1 x74 +1 x81 +1 x83 +1 x96 +1 x98 +1 x99 >= +1
 c21: +1 x4 +1 x7 +1 x14 +1 x18 +1 x24 +1 x52 +1 x54 +1 x60 +1 x61 +1 x64 +1 x65 +1 x72 +1 x78 +1 x87
  +1 x90 +1 x93 +1 x94 +1 x98 >= +1
 c22: +1 x0 +1 x10 +1 x20 +1 x22 +1 x26 +1 x33 +1 x35 +1 x40 +1 x51 +1 x53 +1 x56 +1 x57 +1 x69 +1 x74
  +1 x84 +1 x86 +1 x90 +1 x96 >= +1
 c23: +1 x4 +1 x21 +1 x28 +1 x32 +1 x35 +1 x50 +1 x51 +1 x59 +1 x61 +1 x72 +1 x76 +1 x78 +1 x83 +1 x92
  +1 x99 >= +1
 c24: +1 x1 +1 x10 +1 x12 +1 x15 +1 x19 +1 x31 +1 x32 +1 x34 +1 x38 +1 x44 +1 x47 +1 x49 +1 x52 +1 x55
  +1 x56 +1 x59 +1 x60 +1 x69 +1 x72 +1 x83 +1 x90 +1 x93 >= +1
 c25: +1 x4 +1 x6 +1 x7 +1 x19 +1 x31 +1 x35 +1 x37 +1 x58 +1 x64 +1 x74 +1 x77 +1 x79 +1 x82 +1 x87 +1 x88
  +1 x91 +1 x96 +1 x97 >= +1
 c26: +1 x3 +1 x9 +1 x13 +1 x49 +1 x50 +1 x51 +1 x60 +1 x65 +1 x75 +1 x78 +1 x84 +1 x86 +1 x98 >= +1
 c27: +1 x3 +1 x8 +1 x14 +1 x18 +1 x38 +1 x45 +1 x46 +1 x50 +1 x57 +1 x60 +1 x61 +1 x63 +1 x64 +1 x70
  +1 x79 +1 x80 +1 x82 +1 x93 >= +1
 c28: +1 x4 +1 x6 +1 x7 +1 x16 +1 x21 +1 x33 +1 x44 +1 x48 +1 x49 +1 x77 +1 x82 +1 x95 >= +1
 c29: +1 x0 +1 x4 +1 x5 +1 x12 +1 x15 +1 x19 +1 x26 +1 x32 +1 x39 +1 x42 +1 x51 +1 x53 +1 x54 +1 x55 +1 x56
  +1 x58 +1 x61 +1 x64 +1 x68 +1 x69 +1 x71 +1 x72 +1 x77 +1 x87 +1 x88 +1 x95 >= +1
 c30: +1 x0 +1 x6 +1 x9 +1 x11 +1 x12 +1 x13 +1 x14 +1 x29 +1 x33 +1 x36 +1 x37 +1 x41 +1 x44 +1 x51 +1 x57
  +1 x63 +1 x69 +1 x81 +1 x84 +1 x86 +1 x94 +1 x97 >= +1
 c31: +1 x0 +1 x28 +1 x30 +1 x33 +1 x44 +1 x49 +1 x52 +1 x56 +1 x57 +1 x62 +1 x66 +1 x74 +1 x77 +1 x83
  +1 x84 +1 x86 +1 x87 +1 x95 +1 x96 +1 x99 >= +1
 c32: +1 x0 +1 x4 +1 x9 +1 x10 +1 x12 +1 x14 +1 x18 +1 x20 +1 x21 +1 x23 +1 x28 +1 x32 +1 x42 +1 x43 +1 x48
  +1 x54 +1 x60 +1 x62 +1 x68 +1 x70 +1 x79 +1 x83 +1 x88 +1 x89 +1 x91 +1 x95 +1 x98 +1 x99 >= +1
 c33: +1 x0 +1 x16 +1 x19 +1 x41 +1 x53 +1 x70 +1 x75 +1 x87 +1 x94 +1 x96 >= +1
 c34: +1 x0 +1 x10 +1 x12 +1 x14 +1 x16 +1 x22 +1 x25 +1 x39 +1 x42 +1 x44 +1 x46 +1 x53 +1 x56 +1 x59
  +1 x62 +1 x66 +1 x68 +1 x69 +1 x74 +1 x84 +1 x87 +1 x92 +1 x96 +1 x98 +1 x99 >= +1
 c35: +1 x3 +1 x6 +1 x10 +1 x15 +1 x22 +1 x26 +1 x34 +1 x35 +1 x38 +1 x39 +1 x40 +1 x45 +1 x47 +1 x56
  +1 x58 +1 x59 +1 x65 +1 x66 +1 x69 +1 x71 +1 x78 +1 x81 +1 x83 +1 x87 +1 x91 +1 x94 >= +1
 c36: +1 x2 +1 x13 +1 x16 +1 x23 +1 x30 +1 x32 +1 x33 +1 x34 +1 x36 +1 x41 +1 x44 +1 x46 +1 x48 +1 x63
  +1 x77 +1 x78 +1 x81 +1 x82 +1 x85 +1 x91 +1 x98 >= +1
 c37: +1 x0 +1 x5 +1 x6 +1 x7 +1 x10 +1 x13 +1 x20 +1 x23 +1 x24 +1 x25 +1 x33 +1 x47 +1 x54 +1 x60 +1 x61
  +1 x79 +1 x83 +1 x85 +1 x90 +1 x91 +1 x93 +1 x98 >= +1
 c38: +1 x1 +1 x11 +1 x14 +1 x21 +1 x24 +1 x32 +1 x33 +1 x38 +1 x40 +1 x48 +1 x55 +1 x61 +1 x64 +1 x67
  +1 x68 +1 x71 +1 x75 +1 x82 +1 x85 +1 x91 +1 x97 +1 x98 >= +1
 c39: +1 x0 +1 x5 +1 x20 +1 x21 +1 x26 +1 x29 +1 x31 +1 x36 +1 x40 +1 x48 +1 x59 +1 x60 +1 x62 +1 x65
  +1 x67 +1 x71 +1 x73 +1 x75 +1 x76 +1 x77 +1 x81 +1 x82 +1 x86 +1 x89 >= +1
 c40: +1 x4 +1 x12 +1 x13 +1 x18 +1 x22 +1 x30 +1 x35 +1 x36 +1 x44 +1 x48 +1 x56 +1 x62 +1 x63 +1 x68
  +1 x75 +1 x77 +1 x86 +1 x88 +1 x92 +1 x95 +1 x96 +1 x97 >= +1
 c41: +1 x2 +1 x6 +1 x7 +1 x20 +1 x25 +1 x31 +1 x40 +1 x41 +1 x51 +1 x52 +1 x57 +1 x73 +1 x75 +1 x83 >= +1
 c42: +1 x3 +1 x10 +1 x11 +1 x19 +1 x20 +1 x21 +1 x24 +1 x26 +1 x37 +1 x40 +1 x54 +1 x60 +1 x61 +1 x62
  +1 x63 +1 x67 +1 x69 +1 x70 +1 x71 +1 x72 +1 x82 +1 x91 +1 x92 +1 x94 >= +1
 c43: +1 x0 +1 x7 +1 x9 +1 x11 +1 x27 +1 x30 +1 x31 +1 x34 +1 x51 +1 x54 +1 x55 +1 x56 +1 x67 +1 x75 +1 x92
  +1 x95 >= +1
 c44: +1 x4 +1 x10 +1 x16 +1 x20 +1 x42 +1 x44 +1 x47 +1 x53 +1 x56 +1 x88 +1 x91 +1 x97 >= +1
 c45: +1 x0 +1 x7 +1 x17 +1 x18 +1 x29 +1 x30 +1 x32 +1 x35 +1 x36 +1 x40 +1 x43 +1 x44 +1 x47 +1 x54
  +1 x76 +1 x80 +1 x99 >= +1
 c46: +1 x1 +1 x7 +1 x10 +1 x11 +1 x17 +1 x18 +1 x31 +1 x40 +1 x51 +1 x52 +1 x54 +1 x59 +1 x60 +1 x61
  +1 x72 +1 x74 +1 x81 +1 x89 >= +1
 c47: +1 x1 +1 x4 +1 x7 +1 x15 +1 x16 +1 x21 +1 x25 +1 x31 +1 x33 +1 x38 +1 x43 +1 x45 +1 x48 +1 x49 +1 x52
  +1 x55 +1 x57 +1 x58 +1 x59 +1 x62 +1 x69 +1 x70 +1 x78 +1 x81 +1 x92 +1 x96 >= +1
 c48: +1 x3 +1 x25 +1 x35 +1 x43 +1 x44 +1 x45 +1 x53 +1 x57 +1 x64 +1 x69 +1 x73 +1 x75 +1 x77 >= +1
 c49: +1 x3 +1 x6 +1 x11 +1 x20 +1 x30 +1 x31 +1 x33 +1 x34 +1 x47 +1 x57 +1 x61 +1 x62 +1 x63 +1 x65
  +1 x68 +1 x73 +1 x76 +1 x77 +1 x92 +1 x95 +1 x98 >= +1
 c50: +1 x4 +1 x5 +1 x7 +1 x15 +1 x27 +1 x29 +1 x38 +1 x41 +1 x44 +1 x49 +1 x58 +1 x59 +1 x61 +1 x66 +1 x76
  +1 x82 +1 x87 +1 x92 +1 x93 +1 x97 >= +1
 c51: +1 x1 +1 x12 +1 x16 +1 x17 +1 x20 +1 x21 +1 x30 +1 x32 +1 x33 +1 x40 +1 x50 +1 x55 +1 x57 +1 x63
  +1 x75 +1 x77 +1 x83 +1 x86 +1 x87 +1 x90 +1 x92 +1 x94 +1 x96 +1 x99 >= +1
 c52: +1 x1 +1 x7 +1 x9 +1 x12 +1 x14 +1 x17 +1 x19 +1 x20 +1 x23 +1 x29 +1 x30 +1 x34 +1 x35 +1 x43 +1 x45
  +1 x47 +1 x51 +1 x55 +1 x56 +1 x72 +1 x84 +1 x86 +1 x93 +1 x94 >= +1
 c53: +1 x2 +1 x5 +1 x7 +1 x20 +1 x22 +1 x38 +1 x41 +1 x42 +1 x47 +1 x49 +1 x61 +1 x62 +1 x72 +1 x74 +1 x87
  +1 x98 >= +1
 c54: +1 x4 +1 x7 +1 x15 +1 x23 +1 x25 +1 x32 +1 x33 +1 x42 +1 x43 +1 x47 +1 x56 +1 x57 +1 x58 +1 x59
  +1 x61 +1 x81 +1 x86 +1 x88 +1 x92 +1 x99 >= +1
 c55: +1 x3 +1 x6 +1 x12 +1 x15 +1 x17 +1 x23 +1 x26 +1 x28 +1 x34 +1 x35 +1 x43 +1 x54 +1 x56 +1 x61
  +1 x69 +1 x72 +1 x80 +1 x82 +1 x86 >= +1
 c56: +1 x2 +1 x12 +1 x14 +1 x15 +1 x18 +1 x27 +1 x36 +1 x40 +1 x41 +1 x46 +1 x49 +1 x50 +1 x52 +1 x58
  +1 x68 +1 x70 +1 x76 +1 x82 +1 x86 +1 x90 +1 x91 +1 x95 >= +1
 c57: +1 x0 +1 x6 +1 x11 +1 x14 +1 x18 +1 x20 +1 x22 +1 x27 +1 x56 +1 x57 +1 x65 +1 x66 +1 x70 +1 x73
  +1 x74 +1 x80 +1 x85 +1 x87 +1 x88 +1 x93 >= +1
 c58: +1 x0 +1 x11 +1 x12 +1 x17 +1 x24 +1 x26 +1 x31 +1 x32 +1 x39 +1 x41 +1 x62 +1 x66 +1 x73 +1 x78
  +1 x80 +1 x94 >= +1
 c59: +1 x1 +1 x7 +1 x14 +1 x15 +1 x21 +1 x26 +1 x29 +1 x32 +1 x39 +1 x45 +1 x47 +1 x58 +1 x66 +1 x67
  +1 x75 +1 x81 +1 x88 +1 x90 +1 x94 +1 x96 +1 x99 >= +1
 c60: +1 x2 +1 x7 +1 x11 +1 x13 +1 x18 +1 x20 +1 x21 +1 x23 +1 x29 +1 x30 +1 x32 +1 x34 +1 x36 +1 x43
  +1 x49 +1 x53 +1 x56 +1 x57 +1 x59 +1 x63 +1 x82 +1 x84 +1 x85 +1 x91 +1 x98 +1 x99 >= +1
 c61: +1 x0 +1 x9 +1 x12 +1 x15 +1 x24 +1 x28 +1 x34 +1 x39 +1 x41 +1 x45 +1 x46 +1 x61 +1 x62 +1 x66
  +1 x72 +1 x77 +1 x79 +1 x80 +1 x84 +1 x87 +1 x88 >= +1
 c62: +1 x4 +1 x5 +1 x7 +1 x10 +1 x21 +1 x23 +1 x29 +1 x35 +1 x36 +1 x38 +1 x39 +1 x40 +1 x41 +1 x44 +1 x48
  +1 x54 +1 x60 +1 x62 +1 x83 +1 x95 >= +1
 c63: +1 x0 +1 x9 +1 x31 +1 x32 +1 x37 +1 x39 +1 x45 +1 x46 +1 x59 +1 x64 +1 x67 +1 x68 +1 x73 +1 x75
  +1 x81 +1 x85 +1 x86 +1 x96 +1 x99 >= +1
 c64: +1 x1 +1 x5 +1 x16 +1 x23 +1 x25 +1 x27 +1 x28 +1 x38 +1 x39 +1 x54 +1 x59 +1 x60 +1 x69 +1 x71
  +1 x78 +1 x80 +1 x82 +1 x83 +1 x85 +1 x92 +1 x93 +1 x96 >= +1
 c65: +1 x2 +1 x13 +1 x16 +1 x18 +1 x24 +1 x38 +1 x46 +1 x47 +1 x52 +1 x56 +1 x68 +1 x72 +1 x73 +1 x75
  +1 x78 +1 x80 +1 x83 +1 x96 +1 x99 >= +1
 c66: +1 x0 +1 x17 +1 x21 +1 x30 +1 x38 +1 x62 +1 x68 +1 x69 +1 x70 +1 x79 +1 x81 +1 x86 +1 x87 +1 x88
  >= +1
 c67: +1 x0 +1 x7 +1 x13 +1 x16 +1 x17 +1 x18 +1 x31 +1 x33 +1 x39 +1 x45 +1 x47 +1 x50 +1 x51 +1 x52
  +1 x55 +1 x57 +1 x64 +1 x73 +1 x74 +1 x77 +1 x78 +1 x79 +1 x80 +1 x83 +1 x85 +1 x87 +1 x93 +1 x98 +1 x99
  >= +1
 c68: +1 x4 +1 x5 +1 x11 +1 x19 +1 x20 +1 x27 +1 x28 +1 x31 +1 x35 +1 x53 +1 x59 +1 x60 +1 x64 +1 x68
  +1 x73 +1 x77 +1 x80 +1 x83 +1 x96 +1 x97 +1 x98 >= +1
 c69: +1 x1 +1 x5 +1 x8 +1 x14 +1 x22 +1 x36 +1 x37 +1 x40 +1 x45 +1 x51 +1 x52 +1 x59 +1 x60 +1 x67 +1 x75
  +1 x76 +1 x77 +1 x81 +1 x89 +1 x93 >= +1
 c70: +1 x3 +1 x31 +1 x38 +1 x47 +1 x54 +1 x58 +1 x59 +1 x60 +1 x63 +1 x70 +1 x77 +1 x82 +1 x85 +1 x91
  +1 x92 +1 x98 >= +1
 c71: +1 x2 +1 x10 +1 x17 +1 x20 +1 x21 +1 x23 +1 x25 +1 x35 +1 x39 +1 x40 +1 x53 +1 x68 +1 x74 +1 x86
  +1 x89 +1 x90 +1 x94 >= +1
 c72: +1 x2 +1 x5 +1 x8 +1 x12 +1 x16 +1 x30 +1 x34 +1 x37 +1 x38 +1 x40 +1 x42 +1 x47 +1 x67 +1 x68 +1 x74
  +1 x77 +1 x79 +1 x80 +1 x85 +1 x91 +1 x92 >= +1
 c73: +1 x3 +1 x7 +1 x18 +1 x23 +1 x26 +1 x28 +1 x34 +1 x38 +1 x40 +1 x53 +1 x56 +1 x61 +1 x63 +1 x69
  +1 x85 +1 x89 +1 x90 +1 x97 +1 x99 >= +1
 c74: +1 x3 +1 x7 +1 x15 +1 x16 +1 x26 +1 x30 +1 x31 +1 x34 +1 x42 +1 x45 +1 x48 +1 x51 +1 x52 +1 x62
  +1 x67 +1 x76 +1 x77 +1 x87 +1 x90 +1 x98 >= +1
 c75: +1 x0 +1 x5 +1 x7 +1 x8 +1 x9 +1 x13 +1 x14 +1 x22 +1 x23 +1 x24 +1 x32 +1 x34 +1 x39 +1 x46 +1 x49
  +1 x52 +1 x54 +1 x61 +1 x62 +1 x78 +1 x83 +1 x86 +1 x87 +1 x99 >= +1
 c76: +1 x2 +1 x5 +1 x11 +1 x12 +1 x27 +1 x28 +1 x30 +1 x37 +1 x44 +1 x49 +1 x52 +1 x56 +1 x70 +1 x74
  +1 x78 +1 x84 +1 x86 +1 x89 +1 x94 >= +1
 c77: +1 x0 +1 x8 +1 x16 +1 x30 +1 x31 +1 x32 +1 x36 +1 x43 +1 x53 +1 x62 +1 x65 +1 x70 +1 x84 +1 x88
  +1 x91 +1 x93 >= +1
 c78: +1 x2 +1 x13 +1 x21 +1 x24 +1 x25 +1 x27 +1 x30 +1 x31 +1 x34 +1 x48 +1 x49 +1 x51 +1 x55 +1 x56
  +1 x71 +1 x74 +1 x75 +1 x84 +1 x85 +1 x91 +1 x94 >= +1
 c79: +1 x0 +1 x5 +1 x7 +1 x8 +1 x9 +1 x11 +1 x20 +1 x27 +1 x28 +1 x36 +1 x44 +1 x45 +1 x53 +1 x56 +1 x59
  +1 x65 +1 x67 +1 x73 +1 x79 +1 x80 +1 x82 +1 x84 +1 x98 +1 x99 >= +1
 c80: +1 x2 +1 x12 +1 x20 +1 x22 +1 x23 +1 x32 +1 x34 +1 x46 +1 x47 +1 x49 +1 x51 +1 x52 +1 x58 +1 x61
  +1 x62 +1 x66 +1 x68 +1 x72 +1 x73 +1 x83 +1 x91 +1 x99 >= +1
 c81: +1 x4 +1 x5 +1 x6 +1 x20 +1 x21 +1 x23 +1 x34 +1 x35 +1 x52 +1 x59 +1 x61 +1 x62 +1 x76 +1 x78 +1 x83
  +1 x84 +1 x89 +1 x91 +1 x93 +1 x96 >= +1
 c82: +1 x0 +1 x9 +1 x14 +1 x16 +1 x20 +1 x23 +1 x30 +1 x35 +1 x41 +1 x50 +1 x56 +1 x59 +1 x60 +1 x62
  +1 x64 +1 x66 +1 x67 +1 x69 +1 x76 +1 x80 +1 x86 +1 x88 +1 x92 +1 x95 +1 x96 +1 x98 +1 x99 >= +1
 c83: +1 x3 +1 x16 +1 x18 +1 x21 +1 x31 +1 x40 +1 x41 +1 x42 +1 x59 +1 x60 +1 x68 +1 x69 +1 x70 +1 x75
  +1 x76 +1 x77 +1 x81 +1 x82 +1 x88 +1 x97 >= +1
 c84: +1 x1 +1 x10 +1 x17 +1 x23 +1 x24 +1 x26 +1 x31 +1 x32 +1 x35 +1 x37 +1 x46 +1 x47 +1 x50 +1 x51
  +1 x61 +1 x76 +1 x80 +1 x81 +1 x85 +1 x93 +1 x95 +1 x97 +1 x99 >= +1
 c85: +1 x0 +1 x12 +1 x16 +1 x19 +1 x21 +1 x31 +1 x33 +1 x40 +1 x42 +1 x46 +1 x47 +1 x51 +1 x52 +1 x56
  +1 x58 +1 x60 +1 x63 +1 x68 +1 x75 +1 x77 +1 x91 +1 x98 >= +1
 c86: +1 x3 +1 x6 +1 x10 +1 x11 +1 x23 +1 x24 +1 x42 +1 x43 +1 x53 +1 x69 +1 x81 +1 x85 +1 x90 +1 x99
  >= +1
 c87: +1 x0 +1 x5 +1 x17 +1 x33 +1 x37 +1 x42 +1 x44 +1 x62 +1 x68 +1 x70 +1 x79 +1 x82 +1 x91 +1 x92
  +1 x95 +1 x97 >= +1
 c88: +1 x0 +1 x10 +1 x12 +1 x17 +1 x26 +1 x28 +1 x29 +1 x36 +1 x37 +1 x40 +1 x48 +1 x49 +1 x57 +1 x59
  +1 x64 +1 x72 +1 x83 +1 x84 +1 x89 +1 x94 +1 x95 +1 x96 +1 x97 >= +1
 c89: +1 x3 +1 x7 +1 x8 +1 x10 +1 x11 +1 x15 +1 x20 +1 x24 +1 x28 +1 x31 +1 x35 +1 x36 +1 x40 +1 x42 +1 x44
  +1 x51 +1 x52 +1 x53 +1 x72 +1 x78 +1 x79 +1 x80 +1 x82 +1 x83 +1 x86 +1 x93 +1 x94 +1 x98 >= +1
 c90: +1 x0 +1 x15 +1 x17 +1 x26 +1 x32 +1 x34 +1 x41 +1 x53 +1 x58 +1 x64 +1 x65 +1 x67 +1 x70 +1 x72
  +1 x77 +1 x83 +1 x89 +1 x99 >= +1
 c91: +1 x3 +1 x9 +1 x16 +1 x24 +1 x34 +1 x38 +1 x64 +1 x75 +1 x79 +1 x85 +1 x92 +1 x94 >= +1
 c92: +1 x0 +1 x13 +1 x14 +1 x19 +1 x22 +1 x45 +1 x52 +1 x54 +1 x58 +1 x59 +1 x64 +1 x72 +1 x74 +1 x79
  +1 x83 +1 x85 >= +1
 c93: +1 x1 +1 x5 +1 x16 +1 x19 +1 x20 +1 x21 +1 x22 +1 x33 +1 x34 +1 x47 +1 x52 +1 x53 +1 x55 +1 x65
  +1 x72 +1 x73 +1 x80 +1 x81 +1 x84 +1 x90 +1 x91 +1 x93 >= +1
 c94: +1 x2 +1 x10 +1 x11 +1 x13 +1 x15 +1 x16 +1 x18 +1 x19 +1 x23 +1 x39 +1 x42 +1 x48 +1 x53 +1 x69
  +1 x72 +1 x77 +1 x78 +1 x82 +1 x84 +1 x87 +1 x88 +1 x91 >= +1
 c95: +1 x3 +1 x6 +1 x11 +1 x19 +1 x21 +1 x26 +1 x27 +1 x36 +1 x38 +1 x49 +1 x56 +1 x61 +1 x66 +1 x67
  +1 x74 +1 x86 +1 x87 +1 x88 +1 x89 +1 x99 >= +1
 c96: +1 x3 +1 x11 +1 x12 +1 x15 +1 x16 +1 x20 +1 x25 +1 x42 +1 x43 +1 x52 +1 x55 +1 x56 +1 x58 +1 x59
  +1 x61 +1 x63 +1 x72 +1 x78 +1 x82 +1 x83 >= +1
 c97: +1 x4 +1 x6 +1 x8 +1 x13 +1 x18 +1 x28 +1 x29 +1 x31 +1 x47 +1 x49 +1 x55 +1 x60 +1 x64 +1 x69 +1 x78
  +1 x79 +1 x89 +1 x90 +1 x98 >= +1
 c98: +1 x2 +1 x6 +1 x10 +1 x16 +1 x20 +1 x22 +1 x29 +1 x30 +1 x33 +1 x35 +1 x39 +1 x42 +1 x46 +1 x47
  +1 x51 +1 x57 +1 x58 +1 x71 +1 x76 +1 x90 +1 x94 >= +1
 c99: +1 x2 +1 x15 +1 x16 +1 x31 +1 x36 +1 x47 +1 x51 +1 x53 +1 x59 +1 x62 +1 x66 +1 x80 +1 x82 +1 x88
  +1 x92 >= +1
Bounds
 0 <= x0 <= 1
 0 <= x1 <= 1
 0 <= x2 <= 1
 0 <= x3 <= 1
 0 <= x4 <= 1
 0 <= x5 <= 1
 0 <= x6 <= 1
 0 <= x7 <= 1
 0 <= x8 <= 1
 0 <= x9 <= 1
 0 <= x10 <= 1
 0 <= x11 <= 1
 0 <= x12 <= 1
 0 <= x13 <= 1
 0 <= x14 <= 1
 0 <= x15 <= 1
 0 <= x16 <= 1
 0 <= x17 <= 1
 0 <= x18 <= 1
 0 <= x19 <= 1
 0 <= x20 <= 1
 0 <= x21 <= 1
 0 <= x22 <= 1
 0 <= x23 <= 1
 0 <= x24 <= 1
 0 <= x25 <= 1
 0 <= x26 <= 1
 0 <= x27 <= 1
 0 <= x28 <= 1
 0 <= x29 <= 1
 0 <= x30 <= 1
 0 <= x31 <= 1
 0 <= x32 <= 1
 0 <= x33 <= 1
 0 <= x34 <= 1
 0 <= x35 <= 1
 0 <= x36 <= 1
 0 <= x37 <= 1
 0 <= x38 <= 1
 0 <= x39 <= 1
 0 <= x40 <= 1
 0 <= x41 <= 1
 0 <= x42 <= 1
 0 <= x43 <= 1
 0 <= x44 <= 1
 0 <= x45 <= 1
 0 <= x46 <= 1
 0 <= x47 <= 1
 0 <= x48 <= 1
 0 <= x49 <= 1
 0 <= x50 <= 1
 0 <= x51 <= 1
 0 <= x52 <= 1
 0 <= x53 <= 1
 0 <= x54 <= 1
 0 <= x55 <= 1
 0 <= x56 <= 1
 0 <= x57 <= 1
 0 <= x58 <= 1
 0 <= x59 <= 1
 0 <= x60 <= 1
 0 <= x61 <= 1
 0 <= x62 <= 1
 0 <= x63 <= 1
 0 <= x64 <= 1
 0 <= x65 <= 1
 0 <= x66 <= 1
 0 <= x67 <= 1
 0 <= x68 <= 1
 0 <= x69 <= 1
 0 <= x70 <= 1
 0 <= x71 <= 1
 0 <= x72 <= 1
 0 <= x73 <= 1
 0 <= x74 <= 1
 0 <= x75 <= 1
 0 <= x76 <= 1
 0 <= x77 <= 1
 0 <= x78 <= 1
 0 <= x79 <= 1
 0 <= x80 <= 1
 0 <= x81 <= 1
 0 <= x82 <= 1
 0 <= x83 <= 1
 0 <= x84 <= 1
 0 <= x85 <= 1
 0 <= x86 <= 1
 0 <= x87 <= 1
 0 <= x88 <= 1
 0 <= x89 <= 1
 0 <= x90 <= 1
 0 <= x91 <= 1
 0 <= x92 <= 1
 0 <= x93 <= 1
 0 <= x94 <= 1
 0 <= x95 <= 1
 0 <= x96 <= 1
 0 <= x97 <= 1
 0 <= x98 <= 1
 0 <= x99 <= 1
Binaries
 x0 x1 x2 x3 x4 x5 x6 x7 x8 x9 x10 x11 x12 x13 x14 x15 x16 x17 x18 x19 x20 x21 x22 x23 x24 x25 x26 x27
 x28 x29 x30 x31 x32 x33 x34 x35 x36 x37 x38 x39 x40 x41 x42 x43 x44 x45 x46 x47 x48 x49 x50 x51 x52 x53
 x54 x55 x56 x57 x58 x59 x60 x61 x62 x63 x64 x65 x66 x67 x68 x69 x70 x71 x72 x73 x74 x75 x76 x77 x78 x79
 x80 x81 x82 x83 x84 x85 x86 x87 x88 x89 x90 x91 x92 x93 x94 x95 x96 x97 x98 x99
End
